Route 1: 0 37 49 22 66 68 93 76 18 10 88 42 0
Route 2: 0 31 60 29 35 70 45 19 5 92 32 50 0
Route 3: 0 16 38 33 99 56 20 0
Route 4: 0 8 53 46 58 80 86 55 0
Route 5: 0 36 82 9 43 26 12 4 13 81 62 0
Route 6: 0 7 28 83 61 90 96 59 34 0
Route 7: 0 84 3 15 47 1 54 0
Route 8: 0 52 40 100 11 2 85 48 79 72 6 0
Route 9: 0 74 67 21 63 78 98 71 77 73 97 89 0
Route 10: 0 44 64 87 23 39 51 94 69 65 17 75 30 0
Route 11: 0 24 27 91 25 14 57 95 41 0
